linear programming/gurobi/nested L-shape/2iter5_main.sol
# Objective value = 4.3232974910394269e+01
q_1 1.4994623655913978e+01
theta_2 2.8238351254480293e+01
